orientation,    von Mises (Pa)
[110],          7.271239e+07 Pa