orientation,    von Mises (Pa)
[110],          7.271239e+07
[100],          7.271239e+07
[111],          7.271239e+07
45[111],        1.020635e+08
54.74[111],     1.073412e+08
60[111],        1.082549e+08