orientation,    von Mises (Pa)
[110],          8.098777e+07
[100],          8.098777e+07
[111],          8.098777e+07
45[111],        1.225465e+08
54.74[111],     1.276134e+08
60[111],        1.280637e+08